set K:= 1	2	3;
set C_H:= 1	2	3	4;
set C_S:= 5	6;
set C_F:= 7	8;
set M:= 9	10	11	12	13	14;
set M_B:= 15	16	17	18	19	20;
set L_B:= 21	22	23;
set A1:=
(0,*) 1 2 3 4 7 8 9 10 11 12 13 14 15 16 17 18 19 20 21 22 23
(1,*) 0 2 3 4 7 8 9 10 11 12 13 14 15 16 17 18 19 20 21 22 23
(2,*) 0 1 3 4 7 8 9 10 11 12 13 14 15 16 17 18 19 20 21 22 23
(3,*) 0 1 2 4 7 8 9 10 11 12 13 14 15 16 17 18 19 20 21 22 23
(4,*) 0 1 2 3 7 8 9 10 11 12 13 14 15 16 17 18 19 20 21 22 23
(7,*) 0 1 2 3 4 8 9 10 11 12 13 14 15 16 17 18 19 20 21 22 23
(8,*) 0 1 2 3 4 7 9 10 11 12 13 14 15 16 17 18 19 20 21 22 23
(9,*) 0 1 2 3 4 7 8 10 11 12 13 14 15 16 17 18 19 20 21 22 23
(10,*) 0 1 2 3 4 7 8 9 11 12 13 14 15 16 17 18 19 20 21 22 23
(11,*) 0 1 2 3 4 7 8 9 10 12 13 14 15 16 17 18 19 20 21 22 23
(12,*) 0 1 2 3 4 7 8 9 10 11 13 14 15 16 17 18 19 20 21 22 23
(13,*) 0 1 2 3 4 7 8 9 10 11 12 14 15 16 17 18 19 20 21 22 23
(14,*) 0 1 2 3 4 7 8 9 10 11 12 13 15 16 17 18 19 20 21 22 23
(15,*) 0 1 2 3 4 7 8 9 10 11 12 13 14 16 17 18 19 20 21 22 23
(16,*) 0 1 2 3 4 7 8 9 10 11 12 13 14 15 17 18 19 20 21 22 23
(17,*) 0 1 2 3 4 7 8 9 10 11 12 13 14 15 16 18 19 20 21 22 23
(18,*) 0 1 2 3 4 7 8 9 10 11 12 13 14 15 16 17 19 20 21 22 23
(19,*) 0 1 2 3 4 7 8 9 10 11 12 13 14 15 16 17 18 20 21 22 23
(20,*) 0 1 2 3 4 7 8 9 10 11 12 13 14 15 16 17 18 19 21 22 23
(21,*) 0 1 2 3 4 7 8 9 10 11 12 13 14 15 16 17 18 19 20 22 23
(22,*) 0 1 2 3 4 7 8 9 10 11 12 13 14 15 16 17 18 19 20 21 23
(23,*) 0 1 2 3 4 7 8 9 10 11 12 13 14 15 16 17 18 19 20 21 22
;
set A2:=
(9,*) 10
(10,*) 9
(11,*) 12
(12,*) 11
(13,*) 14
(14,*) 13
;
param BigM:=99999;
param n:= 3;
param d:=
1	11
2	23
3	7
4	13
5	12
6	9
7	23
8	9
;
param Q:=100;
param w:=
[9,*] 10 0.1
[10,*] 9 0.1
[11,*] 12 0.1
[12,*] 11 0.1
[13,*] 14 0.1
[14,*] 13 0.1
;
param V:=
[9,*] 10 87
[10,*] 9 87
[11,*] 12 98
[12,*] 11 98
[13,*] 14 92
[14,*] 13 92
;
param e:
	9	10	11	12	13	14	15	16	17	18	19	20	21	22	23:=
5		1		0		0		0		1		0		1		0		0		0		1		0		0		1		0	
6		0		1		1		0		0		1		0		1		1		0		0		1		1		0		0	
7		0		0		1		0		0		1		0		0		1		0		0		1		1		0		0	
8		0		1		1		0		0		1		0		1		1		0		0		1		0		0		0	
;
param p:=
1	3
2	3
3	3
;
param G:=
9	87
10	81
11	72
12	98
13	92
14	80
15	87
16	81
17	72
18	98
19	92
20	80
21	90
22	87
23	73
;
param s:=
0	0
1	10
2	10
3	10
4	10
7	10
8	10
9	10
10	10
11	10
12	10
13	10
14	10
15	10
16	10
17	10
18	10
19	10
20	10
21	10
22	10
23	10
;
param t:
	0	1	2	3	4	5	6	7	8	9	10	11	12	13	14	15	16	17	18	19	20	21	22	23:=
0	0.0	41.23	51.09	56.01	39.81	30.36	74.25	75.03	95.86	27.29	102.07	80.01	70.11	15.52	80.52	27.29	102.07	80.01	70.11	15.52	80.52	58.25	47.27	95.13
1	41.23	0.0	17.03	19.42	8.06	11.05	57.56	61.39	80.31	14.32	72.24	81.12	30.59	25.71	70.88	14.32	72.24	81.12	30.59	25.71	70.88	54.71	8.6	60.75
2	51.09	17.03	0.0	5.39	25.0	25.06	72.53	76.84	94.73	25.0	81.58	97.94	20.25	36.67	86.73	25.0	81.58	97.94	20.25	36.67	86.73	71.56	8.94	67.68
3	56.01	19.42	5.39	0.0	26.91	28.79	72.11	76.69	93.86	29.43	78.77	99.05	14.87	41.3	86.82	29.43	78.77	99.05	14.87	41.3	86.82	72.8	10.82	64.29
4	39.81	8.06	25.0	26.91	0.0	10.63	50.16	53.76	73.06	15.81	67.54	73.06	36.4	24.7	63.06	15.81	67.54	73.06	36.4	24.7	63.06	46.65	16.28	57.49
5	30.36	11.05	25.06	28.79	10.63	0.0	58.08	61.03	81.1	5.39	77.9	77.08	41.3	14.87	69.58	5.39	77.9	77.08	41.3	14.87	69.58	50.92	18.44	68.12
6	74.25	57.56	72.53	72.11	50.16	58.08	0.0	5.83	23.02	63.2	36.4	35.47	73.57	65.25	16.28	63.2	36.4	35.47	73.57	65.25	16.28	22.36	63.79	41.44
7	75.03	61.39	76.84	76.69	53.76	61.03	5.83	0.0	20.88	66.0	40.61	29.73	78.77	67.08	10.63	66.0	40.61	29.73	78.77	67.08	10.63	19.85	68.01	46.87
8	95.86	80.31	94.73	93.86	73.06	81.1	23.02	20.88	0.0	86.21	36.4	35.44	93.62	87.86	17.69	86.21	36.4	35.44	93.62	87.86	17.69	39.12	86.15	49.41
9	27.29	14.32	25.0	29.43	15.81	5.39	63.2	66.0	86.21	0.0	83.24	80.99	43.0	12.0	74.33	0.0	83.24	80.99	43.0	12.0	74.33	55.08	20.02	73.25
10	102.07	72.24	81.58	78.77	67.54	77.9	36.4	40.61	36.4	83.24	0.0	68.07	73.06	89.63	47.01	83.24	0.0	68.07	73.06	89.63	47.01	58.52	74.73	17.09
11	80.01	81.12	97.94	99.05	73.06	77.08	35.47	29.73	35.44	80.99	68.07	0.0	104.0	77.67	21.1	80.99	68.07	0.0	104.0	77.67	21.1	26.42	89.04	76.4
12	70.11	30.59	20.25	14.87	36.4	41.3	73.57	78.77	93.62	43.0	73.06	104.0	0.0	55.0	89.31	43.0	73.06	104.0	0.0	55.0	89.31	78.57	23.02	57.08
13	15.52	25.71	36.67	41.3	24.7	14.87	65.25	67.08	87.86	12.0	89.63	77.67	55.0	0.0	74.17	12.0	89.63	77.67	55.0	0.0	74.17	53.08	32.02	81.32
14	80.52	70.88	86.73	86.82	63.06	69.58	16.28	10.63	17.69	74.33	47.01	21.1	89.31	74.17	0.0	74.33	47.01	21.1	89.31	74.17	0.0	22.47	77.83	55.66
15	27.29	14.32	25.0	29.43	15.81	5.39	63.2	66.0	86.21	0.0	83.24	80.99	43.0	12.0	74.33	0.0	83.24	80.99	43.0	12.0	74.33	55.08	20.02	73.25
16	102.07	72.24	81.58	78.77	67.54	77.9	36.4	40.61	36.4	83.24	0.0	68.07	73.06	89.63	47.01	83.24	0.0	68.07	73.06	89.63	47.01	58.52	74.73	17.09
17	80.01	81.12	97.94	99.05	73.06	77.08	35.47	29.73	35.44	80.99	68.07	0.0	104.0	77.67	21.1	80.99	68.07	0.0	104.0	77.67	21.1	26.42	89.04	76.4
18	70.11	30.59	20.25	14.87	36.4	41.3	73.57	78.77	93.62	43.0	73.06	104.0	0.0	55.0	89.31	43.0	73.06	104.0	0.0	55.0	89.31	78.57	23.02	57.08
19	15.52	25.71	36.67	41.3	24.7	14.87	65.25	67.08	87.86	12.0	89.63	77.67	55.0	0.0	74.17	12.0	89.63	77.67	55.0	0.0	74.17	53.08	32.02	81.32
20	80.52	70.88	86.73	86.82	63.06	69.58	16.28	10.63	17.69	74.33	47.01	21.1	89.31	74.17	0.0	74.33	47.01	21.1	89.31	74.17	0.0	22.47	77.83	55.66
21	58.25	54.71	71.56	72.8	46.65	50.92	22.36	19.85	39.12	55.08	58.52	26.42	78.57	53.08	22.47	55.08	58.52	26.42	78.57	53.08	22.47	0.0	62.68	61.13
22	47.27	8.6	8.94	10.82	16.28	18.44	63.79	68.01	86.15	20.02	74.73	89.04	23.02	32.02	77.83	20.02	74.73	89.04	23.02	32.02	77.83	62.68	0.0	61.74
23	95.13	60.75	67.68	64.29	57.49	68.12	41.44	46.87	49.41	73.25	17.09	76.4	57.08	81.32	55.66	73.25	17.09	76.4	57.08	81.32	55.66	61.13	61.74	0.0
;
